NAME : rnd26_20.tsp
TYPE : TSP
DIMENSION : 20
EDGE_WEIGHT_TYPE : EUC_2D
NODE_COORD_SECTION
0 237 741
1 12 44
2 675 852
3 838 46
4 695 256
5 462 164
6 247 553
7 887 338
8 782 427
9 466 376
10 126 565
11 436 0
12 543 896
13 91 929
14 623 360
15 288 167
16 447 71
17 85 995
18 892 501
19 20 747
